Zr1 Ti17 H16 C9 O18
1.0
9.000000 0.000000 0.000000
-4.500000 7.794229 0.000000
0.000000 0.000000 25.000000
O C Ti Zr H
18 9 17 1 16
direct
0.111621 0.222356 0.410234 O
0.112035 0.556418 0.410729 O
0.111210 0.889035 0.410212 O
0.445429 0.223011 0.410949 O
0.445345 0.556452 0.410261 O
0.445171 0.888911 0.410418 O
0.778284 0.223072 0.410332 O
0.778108 0.556001 0.410892 O
0.778508 0.889563 0.410030 O
0.222739 0.111215 0.590882 O
0.222989 0.444598 0.590266 O
0.222560 0.778540 0.590048 O
0.556550 0.111521 0.590830 O
0.555688 0.445008 0.590497 O
0.556291 0.777896 0.590555 O
0.889558 0.111844 0.590542 O
0.889648 0.444685 0.590157 O
0.889666 0.778529 0.590107 O
0.000834 0.000717 0.500524 C
0.000603 0.333597 0.500307 C
0.000685 0.667041 0.500781 C
0.334292 0.000683 0.500567 C
0.333535 0.334194 0.500345 C
0.334057 0.667431 0.500015 C
0.666895 0.000967 0.500144 C
0.667585 0.333454 0.500813 C
0.667508 0.667275 0.500107 C
0.223152 0.111913 0.450999 Ti
0.222399 0.444969 0.450578 Ti
0.222233 0.778598 0.450895 Ti
0.556030 0.111568 0.450829 Ti
0.556243 0.444805 0.450884 Ti
0.556134 0.778495 0.450910 Ti
0.889097 0.111661 0.450505 Ti
0.889698 0.445333 0.450717 Ti
0.889552 0.778031 0.450025 Ti
0.111780 0.222460 0.550373 Ti
0.111583 0.556440 0.550235 Ti
0.111684 0.889316 0.550606 Ti
0.445288 0.222690 0.550521 Ti
0.444902 0.889732 0.550054 Ti
0.778099 0.222821 0.550574 Ti
0.778573 0.556284 0.550898 Ti
0.778523 0.889486 0.550607 Ti
0.445329 0.556323 0.550798 Zr
0.500509 0.500665 0.616135 H
0.000675 0.833923 0.617537 H
0.833873 0.333753 0.616468 H
0.667131 0.500646 0.616108 H
0.834120 0.667407 0.614723 H
0.834111 0.500484 0.616958 H
0.445329 0.556323 0.598652 H
0.111684 0.889316 0.603022 H
0.778099 0.222821 0.603699 H
0.778573 0.556284 0.598160 H
0.667447 0.667320 0.618496 H
0.889566 0.778318 0.631931 H
0.556252 0.445155 0.632674 H
0.667176 0.333988 0.619874 H
0.000489 0.667151 0.611015 H
0.889294 0.444986 0.627534 H
