ALGO = N
EDIFF = 0.00005
EDIFFG = -0.005
ENCUT = 600
IBRION = 2
ICHARG = 2
IOPTCELL = 1 1 0 1 1 0 0 0 0
ISIF = 3
ISMEAR = 0
ISPIN = 2
ISTART = 0
ISYM = 0
IVDW = 12
LCHARG = False
LWAVE = False
NCORE = 4
NEDOS = 301
NELM = 200
NELMIN = 5
NSW = 80
PREC = Normal
SIGMA = 0.02
