# Initialization
ISTART = 0
ICHARG = 2

# Basic
PREC = Normal
ISPIN = 2

# Output
LCHARG = F
LWAVE = F
LORBIT = F

# Electronic relaxation
ALGO = F
EDIFF = 5E-05
EDIFFG = -0.005
ENCUT = 500
NELMIN = 2
NELM = 60
NPAP = 1
ISYM = 0

# Ionic relaxation
IBRION = 2
ISIF = 3
NSW = 80

# Density of states related
ISMEAR = 0
# ISMEAR = -5
SIGMA = 0.05
NEDOS = 301

# Specific
IVDW = 12

IOPTCELL = 1 1 0 1 1 0 0 0 0