Ti17 Fe1 Mo1 C9 O18
1.0
9.000000 0.000000 0.000000
-4.500000 7.794229 0.000000
0.000000 0.000000 25.000000
C O Ti Mo Fe
9 18 17 1 1
direct
0.000000 0.000000 0.500000 C
0.000000 0.333333 0.500000 C
0.000000 0.666667 0.500000 C
0.333333 0.000000 0.500000 C
0.333333 0.333333 0.500000 C
0.333333 0.666667 0.500000 C
0.666667 0.000000 0.500000 C
0.666667 0.333333 0.500000 C
0.666667 0.666667 0.500000 C
0.111110 0.222220 0.410000 O
0.111110 0.555553 0.410000 O
0.111110 0.888887 0.410000 O
0.444443 0.222220 0.410000 O
0.444443 0.555553 0.410000 O
0.444443 0.888887 0.410000 O
0.777777 0.222220 0.410000 O
0.777777 0.555553 0.410000 O
0.777777 0.888887 0.410000 O
0.222220 0.111110 0.590000 O
0.222220 0.444443 0.590000 O
0.222220 0.777777 0.590000 O
0.555553 0.111110 0.590000 O
0.555553 0.444443 0.590000 O
0.555553 0.777777 0.590000 O
0.888887 0.111110 0.590000 O
0.888887 0.444443 0.590000 O
0.888887 0.777777 0.590000 O
0.222220 0.111110 0.450000 Ti
0.222220 0.444443 0.450000 Ti
0.222220 0.777777 0.450000 Ti
0.555553 0.111110 0.450000 Ti
0.555553 0.444443 0.450000 Ti
0.555553 0.777777 0.450000 Ti
0.888887 0.111110 0.450000 Ti
0.888887 0.444443 0.450000 Ti
0.888887 0.777777 0.450000 Ti
0.111110 0.222220 0.550000 Ti
0.111110 0.555553 0.550000 Ti
0.111110 0.888887 0.550000 Ti
0.444443 0.222220 0.550000 Ti
0.444443 0.888887 0.550000 Ti
0.777777 0.222220 0.550000 Ti
0.777777 0.555553 0.550000 Ti
0.777777 0.888887 0.550000 Ti
0.444443 0.555553 0.550000 Mo
0.444443 0.555553 0.650000 Fe
